W32
1.0
   8.1365387389440009    0.0000000000000000    0.0000000000000000
   0.0000000000000000    8.1365387389440009    0.0000000000000000
   0.0000000000000000    0.0000000000000000    8.1365387389440009
W
32
direct
   1.0180632813703951    1.0145590059682830    0.5231377962503442 W
   1.0063291894645603    0.2559521051386282    0.7746807137091196 W
   0.2765404274594199    0.9508264680763124    0.7057780125002228 W
   1.0202135260397838    0.9541978585085246    1.0035207263028529 W
   1.0276808821974406    0.2500655529707571    0.2139746450681118 W
   0.9746961196939141    0.4664598682888185    0.5118667017205033 W
   0.9599261301735812    0.7367973241139114    0.6869312028809956 W
   0.2580878222682272    0.9817869205476072    0.2733809278738211 W
   0.2015945612567945    0.2908393098988774    0.4809339167519773 W
   0.2710720890953876    0.4679721205821374    0.8188486389405397 W
   0.5210983045251176    0.9875911335725472    0.4746804334395655 W
   0.5237077342873796    0.2483764694284428    0.7436806055433002 W
   0.7384493571506398    1.0288543313244931    0.7668634213527543 W
   0.9945532466268198    0.5945021513432742    1.0499492165955893 W
   0.9855310235087258    0.7398545946420261    0.2926454972700361 W
   0.2399970423282627    0.2023379369527231    0.9519074149248640 W
   0.2439772759232471    0.5169414587498735    0.2332794134062733 W
   0.2561406534677698    0.7166724857380603    0.4962031574615128 W
   0.4828371380805654    0.9974064351862503    0.9753296765985461 W
   0.4634561886721541    0.2568984595417309    0.2099312965884574 W
   0.4962884183667797    0.4809152408301932    0.5202679016756484 W
   0.4922262716884674    0.7712689631299166    0.7370539778098723 W
   0.7622693038903782    1.0265807617336489    0.2651904202644930 W
   0.7235783360780140    0.2608439650186493    0.5140414712902014 W
   0.7264978200589407    0.5363059361340454    0.7640148769501760 W
   0.2549673981819535    0.7390243764458418    1.0111189351344350 W
   0.5157026447716340    0.5112427527776837    1.0010832421119180 W
   0.5064037281020373    0.7519986308548550    0.2339944305511270 W
   0.7657989952971480    0.2611775216106920    0.9908586676961030 W
   0.7427381217367733    0.5195365813721146    0.1983055485421170 W
   0.7554757561402596    0.7516413647842124    0.4933608988870821 W
   0.7551672119213363    0.7634769148298759    1.0074772136953603 W
