Pt24 W8
1.0
   7.9672248581240002    0.0000000000000000    0.0000000000000000
   0.0000000000000000    7.9672248581240002    0.0000000000000000
   0.0000000000000000    0.0000000000000000    7.9672248581240002
Pt W
24 8
direct
   1.0108281414942992    1.0250800017356732    0.5050605324759165 Pt
   0.9919573817924746    0.2600244207203802    0.7747350170781738 Pt
   0.2483353010745055    1.0106692702547435    0.7655552926304726 Pt
   0.9907044641371382    0.2638869092821178    0.2187696107357355 Pt
   0.9813779659850984    0.4625032512416676    0.4894630890520009 Pt
   0.9771571325765758    0.7965018117571107    0.7847016497649123 Pt
   0.2484948719880073    0.9835938983926370    0.2262880340901797 Pt
   0.2650874405020279    0.2540334114546442    0.4631425498491220 Pt
   0.2390168436646030    0.5192807201876912    0.7651366452663627 Pt
   0.4950082720486649    0.9693392598922349    0.4855193969211599 Pt
   0.4718843666052123    0.2196297232289797    0.7487921786208236 Pt
   1.0122051748659378    0.5118974857124021    0.9982674236718361 Pt
   0.2476001135458390    0.7813292362079870    0.4926378987106890 Pt
   0.5181360009283631    1.0035689834465087    0.9996840926424805 Pt
   0.5033039953840279    0.2877240121689227    0.1977331337712491 Pt
   0.5402139937347823    0.5125824297396939    0.5194865803052668 Pt
   0.5254219825437692    0.7833797745208845    0.7449195097008873 Pt
   0.7630618419773723    0.9870926349738597    0.2987751189900680 Pt
   0.7526151596950951    0.2300696505806894    0.5061753145303006 Pt
   0.7663373293836487    0.5307838398865992    0.7759713984044988 Pt
   0.2966523035287514    0.7356025188589860    1.0321729224982232 Pt
   0.7502839246891979    0.5058268194090133    0.2348676773935092 Pt
   0.8030781450240316    0.7063711352113095    0.4791617605693183 Pt
   0.7263621905378601    0.7578008274584678    1.0106656102318330 Pt
   0.9893412070843587    1.0013849261856813    1.0268221921677634 W
   0.7228282505486627    0.9997024912890254    0.7080169477732263 W
   1.0056339761427804    0.7453125750727911    0.2208981335973587 W
   0.2338136576052565    0.2733150527210321    1.0135236854766838 W
   0.2302541869721777    0.5074529749819795    0.2839326225943432 W
   0.5356982007745307    0.5030811089719655    0.9751658615787133 W
   0.5046381604752529    0.7044119639038676    0.3015098317371982 W
   0.7507326759668967    0.2411511501471289    0.9697689310262697 W
