PREC = high
ISMEAR = 1
SIGMA = 0.1
NSW=41
IBRION = 2
ISIF = 3
