title
0.881314
9.040166000 0.000000000 0.000000000
0.000000000 9.040166000 0.000000000
0.000000000 0.000000000 9.040166000
24 8
Cartesian
9.226000172 9.017976913 4.520218602    Pt
9.238602164 2.295876718 6.777091524    Pt
2.191720445 9.170272069 6.670191561    Pt
9.101119319 2.336444463 2.249405745    Pt
8.897390138 4.642997617 4.550991328    Pt
9.058490416 6.827788775 6.831978892    Pt
2.401633100 8.999476213 2.414497256    Pt
2.119769764 2.085132368 4.508787313    Pt
2.215857689 4.417843243 6.592721859    Pt
4.502093070 8.946234155 4.317773125    Pt
4.572687726 2.066658789 6.767893155    Pt
9.041318621 4.529615855 9.048980162    Pt
2.294009924 6.756891273 4.592322967    Pt
4.601534896 9.246042220 9.038751214    Pt
4.547370741 2.344259686 2.345999918    Pt
4.428610080 4.526542199 4.696736884    Pt
4.663631796 6.735050232 6.767689752    Pt
6.709977332 9.044627322 2.336806070    Pt
6.724215593 2.394708333 4.454785881    Pt
6.851433329 4.719201696 6.773362456    Pt
2.374761207 6.870562321 9.110814897    Pt
6.792563768 4.563254313 2.055331461    Pt
6.742517409 6.818292081 4.596562804    Pt
6.958857622 6.899771097 9.041743509    Pt
9.183927240 8.989762554 9.166276316    W
6.910727778 9.167528379 6.913453388    W
9.209619392 6.668907858 2.232722118    W
2.105716826 2.331702896 9.089669949    W
2.333953897 4.602280709 2.267278153    W
4.352076035 4.468802658 8.940941138    W
4.447933435 6.892059835 2.246657534    W
6.918922689 2.113762574 9.052523907    W
