W1
1.0
   1.5923506910417917    1.5923506910417939    1.5923506910675049
   1.5923506910417917   -1.5923506910417875    1.5923506910675040
   1.5923506910417908    1.5923506910417917   -1.5923506910675005
W
1
direct
   0.0000000000000000    0.0000000000000000    0.0000000000000000 W
