title
1.
1.636788000 1.636788000 1.636788000
1.636788000 -1.636788000 1.636788000
1.636788000 1.636788000 -1.636788000
1
Cartesian
0.000000000 0.000000000 0.000000000    W
