Pt8 W24
1.0
  -3.1439435044833512   -0.0337123188661993   -6.3963577117098778
   3.1290557894805957   -0.0415219883669349   -6.3890380361791426
   0.0198058530715240  -12.8309925687984165    3.1207353050689477
Pt W
8 24
direct
   0.5413273667395226    0.0670646126124168    0.6419940700636068 Pt
   0.1536031962425601    0.1142053656154568    0.5120188963416490 Pt
   0.7210960842410553    0.2632953747576411    0.3978832662256856 Pt
   0.5592206220395344    0.5322107046229881    0.2357172315988956 Pt
   0.6245716224442102    0.6726692659986017    0.5167565607694194 Pt
   0.2778442114118360    0.7399914306779150    0.6097266670490264 Pt
   0.3479274333488575    0.8668769063846740    0.8828168869395571 Pt
   0.8198275562586471    0.8469212204751602    0.2669744177563411 Pt
   0.9975043763276126    0.9996880951477770    1.0008429770494709 W
   0.0473437063811698    0.0632015307698007    0.2475243413927557 W
   0.5892523887689597    0.0876706979577331    0.8703133136334449 W
   0.1729158046058870    0.1808051091799453    0.7360975365550483 W
   0.6540040040736649    0.1401475817011152    0.1145422050407605 W
   0.2493756963813205    0.2593461848783972    1.0016887737640543 W
   0.3195491056161498    0.3099097772186121    0.2492854922218768 W
   0.7665455170908037    0.2826020770848164    0.6193355223116569 W
   0.3546610221402106    0.3403559063949665    0.4835185448284914 W
   0.8482038043672840    0.3411960843532298    0.8753934108185222 W
   0.4407708295932203    0.4533061720156853    0.7612874123997663 W
   0.0445268020012713    0.5354105049751747    0.6299393363214905 W
   0.0964870265603648    0.5923804004710054    0.8742738281030242 W
   0.9113053731836761    0.4120611186092251    0.1283622400578343 W
   0.5036939302618412    0.4973420388473414    1.0020667224252719 W
   0.9559418653090236    0.4623434025755246    0.3735342522404170 W
   0.1485890515500902    0.6589505835887436    0.1215077466118104 W
   0.2435850579635675    0.6977247034958476    0.3865271587312097 W
   0.6884953179562808    0.6765710594195291    0.7402162940196009 W
   0.7568851338870769    0.7429319499601680    0.9984828308127616 W
   0.4068536957703297    0.9069071654747888    0.1249444894156570 W
   0.8586057523825354    0.8658245385082397    0.4859564200598203 W
   0.4508641601976141    0.9516474310546180    0.3577122231767141 W
   0.9486224849039820    0.9384410051730158    0.7527589312644627 W
