title
1.
-3.273576000 0.000000000 -6.547152000
3.273576000 0.000000000 -6.547152000
0.000000000 -13.094304000 3.273576000
8 24
Cartesian
-1.636788000 -8.183940000 -1.636788000    Pt
0.000000000 -6.547152000 0.000000000    Pt
-1.636788000 -4.910364000 -4.910364000    Pt
0.000000000 -3.273576000 -6.547152000    Pt
0.000000000 -6.547152000 -6.547152000    Pt
1.636788000 -8.183940000 -4.910364000    Pt
1.636788000 -11.457516000 -4.910364000    Pt
0.000000000 -3.273576000 -9.820728000    Pt
0.000000000 -13.094304000 -9.820728000    W
0.000000000 -3.273576000 0.000000000    W
-1.636788000 -11.457516000 -1.636788000    W
0.000000000 -9.820728000 0.000000000    W
-1.636788000 -1.636788000 -4.910364000    W
0.000000000 -13.094304000 0.000000000    W
0.000000000 -3.273576000 -3.273576000    W
-1.636788000 -8.183940000 -4.910364000    W
0.000000000 -6.547152000 -3.273576000    W
-1.636788000 -11.457516000 -4.910364000    W
0.000000000 -9.820728000 -3.273576000    W
1.636788000 -8.183940000 -1.636788000    W
1.636788000 -11.457516000 -1.636788000    W
-1.636788000 -1.636788000 -8.183940000    W
0.000000000 -13.094304000 -3.273576000    W
-1.636788000 -4.910364000 -8.183940000    W
1.636788000 -1.636788000 -4.910364000    W
1.636788000 -4.910364000 -4.910364000    W
0.000000000 -9.820728000 -6.547152000    W
0.000000000 -13.094304000 -6.547152000    W
1.636788000 -1.636788000 -8.183940000    W
0.000000000 -6.547152000 -9.820728000    W
1.636788000 -4.910364000 -8.183940000    W
0.000000000 -9.820728000 -9.820728000    W
