Pt32
1.0
   7.9662607006080011    0.0000000000000000    0.0000000000000000
   0.0000000000000000    7.9662607006080011    0.0000000000000000
   0.0000000000000000    0.0000000000000000    7.9662607006080011
Pt
32
direct
   0.9721187479467526    1.0015234136876230    0.5314811023438230 Pt
   1.0637910123989565    0.2665204239432060    0.7568773135895545 Pt
   0.2352846058934389    1.0008480779013949    0.7551249885040461 Pt
   0.9953979455992517    0.9957507035609400    1.0025964829835585 Pt
   0.9939956380408353    0.2576060700838458    0.2715744867124031 Pt
   0.9991273150032060    0.5270101182046616    0.5074179494921898 Pt
   1.0327796236634554    0.7561608740089868    0.7721800904579043 Pt
   0.2532217621693804    0.9973294632883281    0.2401253757589512 Pt
   0.2673535668679337    0.2996603291169782    0.4888870062458144 Pt
   0.2834666243105465    0.5166821415652737    0.7539101519987217 Pt
   0.4828960627844366    1.0130159441654638    0.4745464546180786 Pt
   0.4878947618035181    0.2291424259963315    0.7364247699763342 Pt
   0.7602041693132815    1.0109474098219169    0.7838787731123223 Pt
   0.9827636839269616    0.5046187532686092    0.9840087190497400 Pt
   0.9595889554132555    0.7343223275651463    0.2880738397570434 Pt
   0.2628650911402294    0.2495634526839219    1.0074511074547483 Pt
   0.2327038917540516    0.5009423538516126    0.2453434223511371 Pt
   0.2283103332525867    0.7395348146407479    0.4866344146331057 Pt
   0.4758573151447917    1.0048265834324006    0.9775044622294881 Pt
   0.5189661618750468    0.2424673956635212    0.2323144137768066 Pt
   0.5120166924892753    0.4924957691553178    0.4585453335243981 Pt
   0.4784894471394629    0.7621833832629211    0.7225183000341066 Pt
   0.7717476969120289    1.0020862866443583    0.2427544822958558 Pt
   0.7516359533091369    0.2465898054465206    0.4990708233856345 Pt
   0.7117759532287919    0.4539340696368092    0.7368154602355377 Pt
   0.2618866967924492    0.7528162466832040    0.9835710587839326 Pt
   0.5056903685433691    0.4542158934981778    1.0153073866489786 Pt
   0.5073886964607501    0.7750700940242383    0.2418684174392070 Pt
   0.7975572127531256    0.2304197475081040    1.0263718543445477 Pt
   0.7383296397558261    0.4985930712291514    0.2178569268285319 Pt
   0.7094939016959515    0.7500467479845675    0.4833094462559678 Pt
   0.7264664724324761    0.7659808085649539    0.9999461849560149 Pt
