W1
1.0
  -0.0000000000000000    2.0196013221260971    2.0196013217928481
   2.0196013221260971   -0.0000000000000000    2.0196013217928481
   2.0196013221260971    2.0196013221260971    0.0000000000000044
W
1
direct
   0.0000000000000000    0.0000000000000000    0.0000000000000000 W
