Pt1
1.0
  -0.0000000000000000    1.9841081120494604    1.9841081120187491
   1.9841081120494604   -0.0000000000000000    1.9841081120187491
   1.9841081120494604    1.9841081120494604    0.0000000000000022
Pt
1
direct
   0.0000000000000000    0.0000000000000000    0.0000000000000000 Pt
