Pt24 W24
1.0
   4.9790406116100234    1.4988644308219992   -4.2327926466500543
   4.7287164915901023    8.1960814737892775    4.2108251240028229
  10.1466233246781936   -3.6742810295942134    5.6015255143980482
Pt W
24 24
direct
   0.9811269415605843    1.0254655158100785    0.9678994293698493 Pt
   0.3236075852341555    0.5359780436236682    0.0969803576953360 Pt
   0.2776592477700928    0.8135803053307141    0.0927178364076121 Pt
   0.2464421047533303    0.4538117315315957    0.3436594123981509 Pt
   0.1968122087288839    0.7327820264789687    0.3465223699276912 Pt
   0.2092493246658240    0.9180722702584281    0.4658695369179090 Pt
   0.1214052068394425    0.8315011424404433    0.7203956280083782 Pt
   0.0267937050105805    0.5642823061177648    0.8446584301864009 Pt
   0.6621329693845884    0.6903938357113675    0.9692730014602164 Pt
   0.6672885100452324    0.8706690107642399    0.0919826258813391 Pt
   0.5382673628466822    0.2450076215778251    0.4695007694338502 Pt
   0.4852934362253828    0.7021153913588204    0.5928864417858046 Pt
   0.4506213327750870    0.1633896850693572    0.7193934344347712 Pt
   0.3947680275572127    0.4372360243011851    0.7187325118297396 Pt
   0.4090043827478668    0.6190808380141682    0.8494266972011398 Pt
   0.3582612879115417    0.9049591944441455    0.8397847968194720 Pt
   1.0026152683955722    0.2069978722413806    0.0945261898230945 Pt
   0.8969427179885308    0.9388114336415251    0.2195556906726517 Pt
   0.8658087550920625    0.5802493017540149    0.4693481825285202 Pt
   0.8068525406826271    0.8623049976490553    0.4690711107826708 Pt
   0.8311823148275528    0.0452864517608620    0.5939019818530761 Pt
   0.7952930662990909    0.4920909094764382    0.7185283683995539 Pt
   0.7329605818051272    0.7780076594731363    0.7131066200603867 Pt
   0.7057388439813953    0.4063076085067366    0.9703682315498106 Pt
   0.3176277489007850    0.3621148706142290    0.9675766511178335 W
   0.2849741629162221   -0.0034167263036133    0.2176368732679864 W
   0.2304357321626241    0.2769191516278348    0.2195176849176206 W
   0.1511037396467268    0.1919392295509014    0.4678429795876712 W
   0.1611409097900272    0.3721473534035083    0.5920929687881854 W
   0.1090031106532732    0.6468074074822242    0.5903575732051763 W
   0.0555704878872958    0.1097366437581839    0.7223814935692976 W
   0.0772528455323917    0.2901581158548207    0.8450129971303096 W
   0.0454155352675032    0.7457627349550318    0.9674437321360271 W
   0.6143942405187309    0.1433282715958775    0.0938063588514492 W
   0.6229296654051603    0.3334636664551868    0.2201457230175204 W
   0.5673584545528356    0.6130329384370710    0.2178016588915370 W
   0.5800128420099043    0.7871715929942267    0.3480252336402883 W
   0.5338778964256761    0.0680188237196616    0.3333478481092297 W
   0.4824316367738619    0.5265256560810119    0.4655517376243019 W
   0.4365124547004325    0.9832336956630028    0.5918614968179469 W
   0.3708148849539175    0.0788721668533381    0.9664932897015585 W
   0.9321039597957964    0.4872619659225352    0.0916865508160221 W
   0.9557233224614864    0.6584682557432050    0.2215158028479744 W
   0.9172405111227858    0.1188393389833690    0.3458772817694682 W
   0.8585567055352437    0.3970645671076733    0.3474843614506785 W
   0.7709986473331758    0.3158215927673624    0.5986248434497335 W
   0.7489157461996411    0.9495417197137742    0.8433186384795537 W
   0.6894770363254993    0.2288057896836669    0.8465065653852752 W
