title
1.
4.910364000 1.636788000 -4.910364000
4.910364000 8.183940000 4.910364000
9.820728000 -3.273576000 6.547152000
24 24
Cartesian
19.641456000 6.547152000 6.547152000    Pt
4.910364000 4.910364000 1.636788000    Pt
6.547152000 6.547152000 3.273576000    Pt
6.547152000 3.273576000 3.273576000    Pt
8.183940000 4.910364000 4.910364000    Pt
9.820728000 6.547152000 6.547152000    Pt
11.457516000 4.910364000 8.183940000    Pt
11.457516000 1.636788000 8.183940000    Pt
16.367880000 3.273576000 6.547152000    Pt
8.183940000 8.183940000 1.636788000    Pt
8.183940000 1.636788000 1.636788000    Pt
11.457516000 4.910364000 4.910364000    Pt
9.820728000 0.000000000 3.273576000    Pt
11.457516000 1.636788000 4.910364000    Pt
13.094304000 3.273576000 6.547152000    Pt
14.731092000 4.910364000 8.183940000    Pt
6.547152000 3.273576000 -3.273576000    Pt
11.457516000 8.183940000 1.636788000    Pt
11.457516000 4.910364000 1.636788000    Pt
13.094304000 6.547152000 3.273576000    Pt
9.820728000 0.000000000 0.000000000    Pt
13.094304000 3.273576000 3.273576000    Pt
14.731092000 4.910364000 4.910364000    Pt
14.731092000 1.636788000 4.910364000    Pt
13.094304000 0.000000000 6.547152000    W
3.273576000 0.000000000 0.000000000    W
4.910364000 1.636788000 1.636788000    W
6.547152000 0.000000000 3.273576000    W
8.183940000 1.636788000 4.910364000    W
9.820728000 3.273576000 6.547152000    W
8.183940000 -1.636788000 4.910364000    W
9.820728000 0.000000000 6.547152000    W
13.094304000 3.273576000 9.820728000    W
4.910364000 1.636788000 -1.636788000    W
6.547152000 3.273576000 0.000000000    W
8.183940000 4.910364000 1.636788000    W
9.820728000 6.547152000 3.273576000    W
6.547152000 0.000000000 0.000000000    W
9.820728000 3.273576000 3.273576000    W
13.094304000 6.547152000 6.547152000    W
11.457516000 -1.636788000 4.910364000    W
8.183940000 4.910364000 -1.636788000    W
9.820728000 6.547152000 0.000000000    W
8.183940000 1.636788000 -1.636788000    W
9.820728000 3.273576000 0.000000000    W
11.457516000 1.636788000 1.636788000    W
16.367880000 6.547152000 6.547152000    W
13.094304000 0.000000000 3.273576000    W
