Pt24 W8
1.0
  -2.7982639602298729   -0.3156484767903525   -6.6379821986902954
   2.7926733671454711   -0.3129214544096701   -6.6369848168901546
  -0.0014951711399540  -13.6661937519593089    2.6685005069151306
Pt W
24 8
direct
   1.0382262184380182    1.0373644756490783    1.0246556981729098 Pt
   0.0267630307813277    0.0482995208870331    0.2383825596807577 Pt
   0.5338784063513740    0.0589854466071075    0.8343938287082229 Pt
   0.1499671870936299    0.1425256328499618    0.7157355600102014 Pt
   0.6404175576040614    0.1425198126783190    0.1134003510291448 Pt
   0.2432581250147005    0.2420605841342357    0.9910468634415313 Pt
   0.3419877443880676    0.3475197205018747    0.2745707830955950 Pt
   0.7537892674798266    0.2461935872904657    0.5952623937879395 Pt
   0.3516075462702587    0.3437780210880958    0.4831847090160660 Pt
   0.8464604443732103    0.3445832676561232    0.8726217393258167 Pt
   0.4486812086779588    0.4464054467484949    0.7547412509291116 Pt
   0.0414469006909084    0.5455487549911816    0.6357184733574192 Pt
   0.1640400873129506    0.6248265286156581    0.9099178921663841 Pt
   0.9349939824912716    0.4466646555881658    0.1552701095753321 Pt
   0.5485239939451777    0.5372807756694836    1.0307459750435271 Pt
   0.9384566573969302    0.4396986355338363    0.3587355965722535 Pt
   0.1437769643303602    0.6469889561267285    0.1184133586883760 Pt
   0.2373108617359871    0.7451063684359963    0.3951749834657982 Pt
   0.6438528211627543    0.6518670108380583    0.7170318869634947 Pt
   0.7475473736652477    0.7431985681609204    0.9833023251924463 Pt
   0.4414921193589169    0.9411180806663435    0.1580764884000581 Pt
   0.8480047963430470    0.8440660620279439    0.4774739035291533 Pt
   0.4458095606867150    0.9318087128598811    0.3544005406751233 Pt
   0.9489675895804749    0.9419040393833321    0.7577744563270699 Pt
   0.5419844557097674    0.0416152624023950    0.6395205245499067 W
   0.1598106476592490    0.1334412339117804    0.5167851143546873 W
   0.7319478808675517    0.2475385180087575    0.3940827284444831 W
   0.5423895932825138    0.5413763668380076    0.2327422250097872 W
   0.6402700858095056    0.6527935582440426    0.5170621378165168 W
   0.2473843234644668    0.7453050818160342    0.5970604576049267 W
   0.3440330100623536    0.8478613176817584    0.8823141560333111 W
   0.8329195579716435    0.8497559961091200    0.2704009290328135 W
