Pt1
1.0
   1.5803126692039058    1.5803126692039053    1.5803126692108780
   1.5803126692039058   -1.5803126692039022    1.5803126692108782
   1.5803126692039058    1.5803126692039053   -1.5803126692108758
Pt
1
direct
   0.0000000000000000    0.0000000000000000    0.0000000000000000 Pt
