Pt16 W16
1.0
   7.9521632722340003    0.0000000000000000    0.0000000000000000
   0.0000000000000000    7.9521632722340003    0.0000000000000000
   0.0000000000000000    0.0000000000000000    7.9521632722340003
Pt W
16 16
direct
   1.0075422803552192    0.9846906665814779    0.5052296538956288 Pt
   1.0084558701286452    0.2514613336586118    0.7528216465809587 Pt
   0.2495053896783834    0.9607382909177399    0.7231891015793421 Pt
   0.9719632404922415    0.2281246166316700    0.2589882498308783 Pt
   1.0324014091799947    0.4642741594170867    0.5097898351955360 Pt
   0.2377368884576486    1.0297152618754206    0.2955312496423649 Pt
   0.2821632434564675    0.2943047986427785    0.5455136396446100 Pt
   0.2521084900265187    0.5249866604411766    0.7566920614913691 Pt
   0.4811591798261613    1.0236892124649442    0.4924024455403663 Pt
   0.9968770724400441    0.4658898557127793    0.9982697615029694 Pt
   0.5161545288168969    0.2547438318241543    0.2841662357173730 Pt
   0.4680901853869833    0.5152238862804309    1.0276202621912334 Pt
   0.4952614667351428    0.7864438959556406    0.2417308193978643 Pt
   0.7219227740676426    0.2806973972836013    1.0113090930283071 Pt
   0.7876519796734358    0.4907441830210469    0.2814425771022911 Pt
   0.7878860628315033    0.7370650795626451    0.4744309965210114 Pt
   0.9942428783086003    1.0194754858283102    0.9905796287320058 W
   0.9823899630774062    0.7077592266859601    0.7520117574120535 W
   0.5170000823436998    0.2444603053923986    0.7484045398548647 W
   0.7462487109170279    1.0074186412100794    0.7385089903658320 W
   0.9959525873488733    0.7530862763573178    0.2422094400744574 W
   0.2842600573520531    0.2415648916519908    0.9847274230250712 W
   0.2168117943903247    0.4470221712042931    0.2355544051973490 W
   0.2507704281868782    0.7324330143579316    0.4881939620663148 W
   0.4625165767523763    1.0097852899739423    1.0133896137739071 W
   0.5035843149307755    0.5252455592401665    0.4236241121467190 W
   0.5331363156948553    0.7117974654898830    0.7626592361543064 W
   0.7444155584667513    0.9889758233964558    0.2219769142619688 W
   0.7239714702294078    0.2358958643382450    0.4993545459274954 W
   0.7309280925463844    0.4837436589410893    0.7427469889376376 W
   0.2315573724183847    0.7620699076891615    0.9975314867599540 W
   0.7588738838535475    0.7527242216758296    0.9852907109627466 W
