Pt8 W24
1.0
   8.0730400011540002    0.0000000000000000    0.0000000000000000
   0.0000000000000000    8.0730400011540002    0.0000000000000000
   0.0000000000000000    0.0000000000000000    8.0730400011540002
Pt W
8 24
direct
   1.0722851298059961    0.9517869392168000    0.9671641704464607 Pt
   0.7858744850281961    1.0197804769900793    0.8191833671004758 Pt
   0.9961900177081390    0.7643279026793290    0.2241875316716887 Pt
   0.2317382294371965    0.2366255319981173    1.0010754297211051 Pt
   0.2304727406512893    0.4893307910837116    0.2821005089850936 Pt
   0.5118646708344063    0.4927017493986851    0.9791926397662492 Pt
   0.5036192276009680    0.7151885592945052    0.2245412567437283 Pt
   0.7551283152777208    0.2590541978066203    1.0301320517599444 Pt
   0.9990154491121996    1.0604036634325942    0.5057523404347086 W
   0.9921682137383362    0.2774510166369333    0.7654890573382578 W
   0.2441346447878086    0.9955147684798391    0.6740042621994297 W
   0.9984695015371996    0.2809983308047398    0.2394170411114555 W
   1.0059369290656395    0.4899731106809946    0.5206676068916770 W
   0.9691826446253908    0.7850592018413104    0.7194424130555163 W
   0.2709135552578404    1.0391675030789573    0.2144896190836895 W
   0.2985843543666137    0.2905071565765632    0.4820565963905927 W
   0.2411005131606919    0.5162949648878956    0.8002970121348052 W
   0.4759697089848315    0.9873936310806453    0.4404091051179927 W
   0.4663869651745357    0.2135968356367798    0.7743788338378540 W
   1.0236054633720815    0.5537654403694778    0.9894677950658379 W
   0.2091935749213724    0.7487469457397549    0.4682823848440774 W
   0.5050336911695189    0.9901371102163157    0.9925394961426647 W
   0.5160705598343871    0.2615344695164127    0.2183791802063919 W
   0.5499080548421108    0.4497031699008807    0.5238815930132840 W
   0.4755233604961325    0.7926750623946029    0.7143148132414627 W
   0.7414181787423455    0.9720482617950790    0.2860369565700640 W
   0.7151449913538246    0.2152133147996617    0.5459747366261245 W
   0.7930040923945073    0.4937662738090420    0.7838285802131798 W
   0.2750873181277106    0.7351271632088404    1.0311679042717199 W
   0.7629448745931424    0.4784848648510591    0.2738486803471026 W
   0.7329589603883586    0.7598369190881724    0.5092652092306867 W
   0.7488078294840051    0.7643845108968091    1.0171652187924116 W
