Pt24 W8
1.0
  -1.9742541430047180   -1.9871393352757274   -3.9788887108300472
  -3.9723372696876598    0.0141886863161213    3.9836963384931905
  -3.9936547164863421   17.8587260737108124   -5.9330135097662877
Pt W
24 8
direct
   0.6900743019634634    0.9666590327490755    0.1869809039501064 Pt
   0.1203622731379156    0.8054722140790865    0.1208015141835891 Pt
   0.3772311946385865    0.9343216703696832    0.3717905796797993 Pt
   0.6851230922303729    0.4744756220900779    0.1867154350976150 Pt
   0.2430637636539048    0.6223147084845690    0.2491571088091173 Pt
   0.5695050413745104    0.1708314569252543    0.0651038181928841 Pt
   0.9851046955136468    1.0008841568580447    1.0024011009557496 Pt
   0.9455299158688553    0.5964133568491561    0.4340968492273253 Pt
   0.4980016631976512    0.7470138861657321    0.5026664773081767 Pt
   0.0618780970527650    0.9114709722416715    0.5662690253288790 Pt
   0.8131247305299401    0.2769475418808450    0.3129186042881623 Pt
   0.3930065991403585    0.4444442926089683    0.3721873742217009 Pt
   0.2381559408064898    0.1198182477448805    0.2473438169739441 Pt
   0.1880360785043203    0.7238173110709131    0.6887696050736778 Pt
   0.9422248181961526    0.0889641173500345    0.4358042100597387 Pt
   0.5098615907301233    0.2526296062217224    0.5010279188621951 Pt
   0.0628089133251231    0.4061341114423154    0.5683672352201491 Pt
   0.8800102997041657    0.6856861166472779    0.8741414329447414 Pt
   0.4210223874804566    0.8408142990231638    0.9435474984114549 Pt
   0.7471566930506430    0.3697652591459243    0.7466694541966434 Pt
   0.3243545467951828    0.5336297713665644    0.8111086396859030 Pt
   0.8698619658039320    0.1806282123114128    0.8759726729421524 Pt
   0.4425718130643181    0.3547043591220224    0.9402416059212885 Pt
   0.3096957215760877    0.0301025626913737    0.8095081690707705 Pt
   0.5568280747644317    0.6629283370154976    0.0648221489947921 W
   1.0021910245052084    0.4905052246274700    0.9987783135321450 W
   0.8160837709722382    0.7841634278303589    0.3139590346143938 W
   0.1257205158655205    0.3139697142495140    0.1248164864030223 W
   0.7502532270973328    0.8738951879025851    0.7481809628958213 W
   0.6216611316806260    0.5566875848895072    0.6223781595340953 W
   0.6210602042768683    0.0534477031782216    0.6220793585670854 W
   0.1884359134989677    0.2264599348669241    0.6913944848529650 W
