Pt16 W16
1.0
  -7.9960974936388487   -3.9725376608777854    3.9931013289118784
  -7.9705820493863895    3.9643848534212296   -3.9501192583747020
   7.9920301784688244   -3.9744911777212408   -4.0032014257384887
Pt W
16 16
direct
   0.7447857092029964    0.2482116184497925    0.9918903044156314 Pt
   0.8752433514873925    0.1228372543447873    0.2494982343083779 Pt
   0.6166928507528547    0.8706983984517809    0.2356122421631436 Pt
   0.7487599085008777    0.7565529130055447    0.5019469438912967 Pt
   0.8739463607972969    0.6271931387566049    0.7504754089583414 Pt
   0.6172955810917807    0.3690813271656986    0.2400607936376123 Pt
   0.7415866722405525    0.2480957384296814    0.4978079698105509 Pt
   0.6203600828186517    0.8728353703148973    0.7501896004356363 Pt
   0.2514748028391358    0.2538101916595686    1.0064808345590721 Pt
   0.5020336554864000    1.0030205421985543    0.4985345216106201 Pt
   0.1285760529485959    0.8728666879227760    0.2469486012980927 Pt
   0.2605214277101894    0.2523099701049779    0.5050753544413025 Pt
   0.1358512610590886    0.8772263500197689    0.7622745362426784 Pt
   1.0075149934153229    0.5056803430307431    0.5052271881792156 Pt
   0.1303210587250737    0.3817443628794049    0.7611108362326080 Pt
   1.0001929726616059    0.9952142933634947    0.4993736041264564 Pt
   0.7630478450369879    0.7597060634744632    1.0138889113957481 W
   0.8681706955040247    0.6276538298969746    0.2538367793280210 W
   0.4971309998540069    0.5016827999056483    1.0054741668092404 W
   0.5042021871393909    0.9961190297600871    0.9967572317422047 W
   0.8804871956979756    0.1245370543771062    0.7530012012853080 W
   0.2512076372984390    0.7475483997070171    0.9971845928474642 W
   0.3793688582103460    0.6259039657098713    0.2606865132730939 W
   0.5078592614288281    0.4970721936367593    0.5036393888921216 W
   0.6348664085488080    0.3789535366214782    0.7659640374053893 W
   0.3708915887341911    0.1319657957469398    0.2550260036739161 W
   0.2365047604994633    0.7409934251138667    0.4834069921327444 W
   0.9965368081218468    0.5026796454983267    0.9892663122878720 W
   0.3768718661551520    0.6162816571677169    0.7385403262486966 W
   0.1140530072156441    0.3737368281069470    0.2429485222845798 W
   0.9972290119673189    1.0031314281103472    1.0022804622208283 W
   0.3664151268497846    0.1146558470684022    0.7355915838621655 W
